\ Model BalC
\ LP format - for model browsing. Use MPS format to capture full model detail.
Minimize
 
Subject To
 committee_size: cand[94,grp_4] + cand[75,grp_4] + cand[92,grp_4]
   + cand[8,grp_1] + cand[36,grp_2] + cand[7,grp_1] + cand[19,grp_1]
   + cand[12,grp_1] + cand[88,grp_4] + cand[89,grp_4] + cand[24,grp_1]
   + cand[77,grp_4] + cand[26,grp_2] + cand[30,grp_2] + cand[81,grp_4]
   + cand[4,grp_1] + cand[1,grp_1] + cand[62,grp_3] + cand[23,grp_1]
   + cand[66,grp_3] + cand[38,grp_2] + cand[13,grp_1] + cand[79,grp_4]
   + cand[20,grp_1] + cand[32,grp_2] + cand[53,grp_3] + cand[61,grp_3]
   + cand[60,grp_3] + cand[56,grp_3] + cand[96,grp_4] + cand[29,grp_2]
   + cand[45,grp_2] + cand[10,grp_1] + cand[15,grp_1] + cand[0,grp_1]
   + cand[58,grp_3] + cand[51,grp_3] + cand[46,grp_2] + cand[11,grp_1]
   + cand[35,grp_2] + cand[73,grp_3] + cand[33,grp_2] + cand[5,grp_1]
   + cand[97,grp_4] + cand[3,grp_1] + cand[90,grp_4] + cand[40,grp_2]
   + cand[95,grp_4] + cand[39,grp_2] + cand[99,grp_4] + cand[52,grp_3]
   + cand[93,grp_4] + cand[28,grp_2] + cand[25,grp_2] + cand[57,grp_3]
   + cand[67,grp_3] + cand[31,grp_2] + cand[98,grp_4] + cand[55,grp_3]
   + cand[70,grp_3] + cand[14,grp_1] + cand[37,grp_2] + cand[16,grp_1]
   + cand[50,grp_3] + cand[2,grp_1] + cand[64,grp_3] + cand[41,grp_2]
   + cand[9,grp_1] + cand[34,grp_2] + cand[65,grp_3] + cand[17,grp_1]
   + cand[82,grp_4] + cand[68,grp_3] + cand[78,grp_4] + cand[48,grp_2]
   + cand[6,grp_1] + cand[59,grp_3] + cand[84,grp_4] + cand[18,grp_1]
   + cand[74,grp_3] + cand[42,grp_2] + cand[86,grp_4] + cand[49,grp_2]
   + cand[69,grp_3] + cand[44,grp_2] + cand[27,grp_2] + cand[71,grp_3]
   + cand[72,grp_3] + cand[87,grp_4] + cand[21,grp_1] + cand[80,grp_4]
   + cand[85,grp_4] + cand[63,grp_3] + cand[91,grp_4] + cand[54,grp_3]
   + cand[83,grp_4] + cand[43,grp_2] + cand[47,grp_2] + cand[76,grp_4]
   + cand[22,grp_1] = 20
 group_bounds: cand[8,grp_1] + cand[7,grp_1] + cand[19,grp_1]
   + cand[12,grp_1] + cand[24,grp_1] + cand[4,grp_1] + cand[1,grp_1]
   + cand[23,grp_1] + cand[13,grp_1] + cand[20,grp_1] + cand[10,grp_1]
   + cand[15,grp_1] + cand[0,grp_1] + cand[11,grp_1] + cand[5,grp_1]
   + cand[3,grp_1] + cand[14,grp_1] + cand[16,grp_1] + cand[2,grp_1]
   + cand[9,grp_1] + cand[17,grp_1] + cand[6,grp_1] + cand[18,grp_1]
   + cand[21,grp_1] + cand[22,grp_1] >= 5
 group_bounds: cand[36,grp_2] + cand[26,grp_2] + cand[30,grp_2]
   + cand[38,grp_2] + cand[32,grp_2] + cand[29,grp_2] + cand[45,grp_2]
   + cand[46,grp_2] + cand[35,grp_2] + cand[33,grp_2] + cand[40,grp_2]
   + cand[39,grp_2] + cand[28,grp_2] + cand[25,grp_2] + cand[31,grp_2]
   + cand[37,grp_2] + cand[41,grp_2] + cand[34,grp_2] + cand[48,grp_2]
   + cand[42,grp_2] + cand[49,grp_2] + cand[44,grp_2] + cand[27,grp_2]
   + cand[43,grp_2] + cand[47,grp_2] >= 5
 group_bounds: cand[62,grp_3] + cand[66,grp_3] + cand[53,grp_3]
   + cand[61,grp_3] + cand[60,grp_3] + cand[56,grp_3] + cand[58,grp_3]
   + cand[51,grp_3] + cand[73,grp_3] + cand[52,grp_3] + cand[57,grp_3]
   + cand[67,grp_3] + cand[55,grp_3] + cand[70,grp_3] + cand[50,grp_3]
   + cand[64,grp_3] + cand[65,grp_3] + cand[68,grp_3] + cand[59,grp_3]
   + cand[74,grp_3] + cand[69,grp_3] + cand[71,grp_3] + cand[72,grp_3]
   + cand[63,grp_3] + cand[54,grp_3] >= 5
 group_bounds: cand[94,grp_4] + cand[75,grp_4] + cand[92,grp_4]
   + cand[88,grp_4] + cand[89,grp_4] + cand[77,grp_4] + cand[81,grp_4]
   + cand[79,grp_4] + cand[96,grp_4] + cand[97,grp_4] + cand[90,grp_4]
   + cand[95,grp_4] + cand[99,grp_4] + cand[93,grp_4] + cand[98,grp_4]
   + cand[82,grp_4] + cand[78,grp_4] + cand[84,grp_4] + cand[86,grp_4]
   + cand[87,grp_4] + cand[80,grp_4] + cand[85,grp_4] + cand[91,grp_4]
   + cand[83,grp_4] + cand[76,grp_4] >= 5
Bounds
Binaries
 cand[94,grp_4] cand[75,grp_4] cand[92,grp_4] cand[8,grp_1] cand[36,grp_2]
 cand[7,grp_1] cand[19,grp_1] cand[12,grp_1] cand[88,grp_4] cand[89,grp_4]
 cand[24,grp_1] cand[77,grp_4] cand[26,grp_2] cand[30,grp_2] cand[81,grp_4]
 cand[4,grp_1] cand[1,grp_1] cand[62,grp_3] cand[23,grp_1] cand[66,grp_3]
 cand[38,grp_2] cand[13,grp_1] cand[79,grp_4] cand[20,grp_1] cand[32,grp_2]
 cand[53,grp_3] cand[61,grp_3] cand[60,grp_3] cand[56,grp_3] cand[96,grp_4]
 cand[29,grp_2] cand[45,grp_2] cand[10,grp_1] cand[15,grp_1] cand[0,grp_1]
 cand[58,grp_3] cand[51,grp_3] cand[46,grp_2] cand[11,grp_1] cand[35,grp_2]
 cand[73,grp_3] cand[33,grp_2] cand[5,grp_1] cand[97,grp_4] cand[3,grp_1]
 cand[90,grp_4] cand[40,grp_2] cand[95,grp_4] cand[39,grp_2] cand[99,grp_4]
 cand[52,grp_3] cand[93,grp_4] cand[28,grp_2] cand[25,grp_2] cand[57,grp_3]
 cand[67,grp_3] cand[31,grp_2] cand[98,grp_4] cand[55,grp_3] cand[70,grp_3]
 cand[14,grp_1] cand[37,grp_2] cand[16,grp_1] cand[50,grp_3] cand[2,grp_1]
 cand[64,grp_3] cand[41,grp_2] cand[9,grp_1] cand[34,grp_2] cand[65,grp_3]
 cand[17,grp_1] cand[82,grp_4] cand[68,grp_3] cand[78,grp_4] cand[48,grp_2]
 cand[6,grp_1] cand[59,grp_3] cand[84,grp_4] cand[18,grp_1] cand[74,grp_3]
 cand[42,grp_2] cand[86,grp_4] cand[49,grp_2] cand[69,grp_3] cand[44,grp_2]
 cand[27,grp_2] cand[71,grp_3] cand[72,grp_3] cand[87,grp_4] cand[21,grp_1]
 cand[80,grp_4] cand[85,grp_4] cand[63,grp_3] cand[91,grp_4] cand[54,grp_3]
 cand[83,grp_4] cand[43,grp_2] cand[47,grp_2] cand[76,grp_4] cand[22,grp_1]
End
